NAME phototropism_srl_ilp
* Max problem is converted into Min one
ROWS
 N  OBJ
 L  constraint1_4105
 L  constraint1_4102
 L  constraint1_4104
 L  constraint1_4101
 L  constraint1_4100
 L  constraint1_4106
 L  constraint1_4103
 L  constraint1_4930
 L  constraint2_3660
 L  constraint2_3661
 L  constraint2_3662
 L  constraint2_3663
 L  constraint2_6710
 L  constraint2_6711
 L  constraint2_6712
 L  constraint2_6713
 L  constraint2_4100
 L  constraint2_4101
 L  constraint2_4102
 L  constraint2_4103
 L  constraint2_5290
 L  constraint2_5291
 L  constraint2_5292
 L  constraint2_5293
 L  constraint2_380
 L  constraint2_381
 L  constraint2_382
 L  constraint2_383
 L  constraint2_4930
 L  constraint2_4931
 L  constraint2_4932
 L  constraint2_4933
COLUMNS
    MARKER    'MARKER'                 'INTORG'
    Z_410_5_0  OBJ       -1.5678845917222493e-02
    Z_410_5_0  constraint1_4105  1
    Z_410_5_0  constraint2_4100  1
    Z_410_5_1  OBJ       -3.5073393978860813e-02
    Z_410_5_1  constraint1_4105  1
    Z_410_5_1  constraint2_4101  1
    Z_410_5_2  OBJ       -2.0581366227262511e-02
    Z_410_5_2  constraint1_4105  1
    Z_410_5_2  constraint2_4102  1
    Z_410_5_3  OBJ       -4.0292301220042175e-03
    Z_410_5_3  constraint1_4105  1
    Z_410_5_3  constraint2_4103  1
    Z_410_5_4  OBJ       -8.2463716375465002e-01
    Z_410_5_4  constraint1_4105  1
    Z_410_2_0  OBJ       -1.0587500223528504e-02
    Z_410_2_0  constraint1_4102  1
    Z_410_2_0  constraint2_4100  1
    Z_410_2_1  OBJ       -6.5276453304570978e-02
    Z_410_2_1  constraint1_4102  1
    Z_410_2_1  constraint2_4101  1
    Z_410_2_2  OBJ       -1.5712152798916540e-01
    Z_410_2_2  constraint1_4102  1
    Z_410_2_2  constraint2_4102  1
    Z_410_2_3  OBJ       -9.4758012630039856e-03
    Z_410_2_3  constraint1_4102  1
    Z_410_2_3  constraint2_4103  1
    Z_410_2_4  OBJ       -6.5753871721973123e-01
    Z_410_2_4  constraint1_4102  1
    Z_410_4_0  OBJ       -1.0587500223528504e-02
    Z_410_4_0  constraint1_4104  1
    Z_410_4_0  constraint2_4100  1
    Z_410_4_1  OBJ       -6.5276453304570978e-02
    Z_410_4_1  constraint1_4104  1
    Z_410_4_1  constraint2_4101  1
    Z_410_4_2  OBJ       -1.5712152798916540e-01
    Z_410_4_2  constraint1_4104  1
    Z_410_4_2  constraint2_4102  1
    Z_410_4_3  OBJ       -9.4758012630039856e-03
    Z_410_4_3  constraint1_4104  1
    Z_410_4_3  constraint2_4103  1
    Z_410_4_4  OBJ       -6.5753871721973123e-01
    Z_410_4_4  constraint1_4104  1
    Z_410_1_0  OBJ       -9.3792175891230390e-03
    Z_410_1_0  constraint1_4101  1
    Z_410_1_0  constraint2_4100  1
    Z_410_1_1  OBJ       -8.1614908172471662e-02
    Z_410_1_1  constraint1_4101  1
    Z_410_1_1  constraint2_4101  1
    Z_410_1_2  OBJ       -9.3828367875189514e-02
    Z_410_1_2  constraint1_4101  1
    Z_410_1_2  constraint2_4102  1
    Z_410_1_3  OBJ       -2.8967999080166092e-03
    Z_410_1_3  constraint1_4101  1
    Z_410_1_3  constraint2_4103  1
    Z_410_1_4  OBJ       -7.1228070645519914e-01
    Z_410_1_4  constraint1_4101  1
    Z_410_0_0  OBJ       -9.3792175891230390e-03
    Z_410_0_0  constraint1_4100  1
    Z_410_0_0  constraint2_4100  1
    Z_410_0_1  OBJ       -8.1614908172471662e-02
    Z_410_0_1  constraint1_4100  1
    Z_410_0_1  constraint2_4101  1
    Z_410_0_2  OBJ       -9.3828367875189514e-02
    Z_410_0_2  constraint1_4100  1
    Z_410_0_2  constraint2_4102  1
    Z_410_0_3  OBJ       -2.8967999080166092e-03
    Z_410_0_3  constraint1_4100  1
    Z_410_0_3  constraint2_4103  1
    Z_410_0_4  OBJ       -7.1228070645519914e-01
    Z_410_0_4  constraint1_4100  1
    Z_410_6_0  OBJ       -5.8746405019385077e-03
    Z_410_6_0  constraint1_4106  1
    Z_410_6_0  constraint2_4100  1
    Z_410_6_1  OBJ       -1.6115117677059732e-01
    Z_410_6_1  constraint1_4106  1
    Z_410_6_1  constraint2_4101  1
    Z_410_6_2  OBJ       -6.3731950663235851e-02
    Z_410_6_2  constraint1_4106  1
    Z_410_6_2  constraint2_4102  1
    Z_410_6_3  OBJ       -3.3740581159294207e-03
    Z_410_6_3  constraint1_4106  1
    Z_410_6_3  constraint2_4103  1
    Z_410_6_4  OBJ       -6.6586817394829900e-01
    Z_410_6_4  constraint1_4106  1
    Z_410_3_0  OBJ       -2.3373098291014852e-01
    Z_410_3_0  constraint1_4103  1
    Z_410_3_0  constraint2_4100  1
    Z_410_3_1  OBJ       -3.7455242281852436e-01
    Z_410_3_1  constraint1_4103  1
    Z_410_3_1  constraint2_4101  1
    Z_410_3_2  OBJ       -3.5357904603943120e-02
    Z_410_3_2  constraint1_4103  1
    Z_410_3_2  constraint2_4102  1
    Z_410_3_3  OBJ       -3.1029228256225491e-02
    Z_410_3_3  constraint1_4103  1
    Z_410_3_3  constraint2_4103  1
    Z_410_3_4  OBJ       -2.2532946141115859e-01
    Z_410_3_4  constraint1_4103  1
    Z_493_0_0  OBJ       -1.2705068944488227e-02
    Z_493_0_0  constraint1_4930  1
    Z_493_0_0  constraint2_4930  1
    Z_493_0_1  OBJ       -3.8471049028545153e-02
    Z_493_0_1  constraint1_4930  1
    Z_493_0_1  constraint2_4931  1
    Z_493_0_2  OBJ       -5.0944185895485675e-02
    Z_493_0_2  constraint1_4930  1
    Z_493_0_2  constraint2_4932  1
    Z_493_0_3  OBJ       -6.7131178813403178e-02
    Z_493_0_3  constraint1_4930  1
    Z_493_0_3  constraint2_4933  1
    Z_493_0_4  OBJ       -7.3074851731807799e-01
    Z_493_0_4  constraint1_4930  1
    MARKER    'MARKER'                 'INTEND'
RHS
    RHS1      constraint1_4105  1
    RHS1      constraint1_4102  1
    RHS1      constraint1_4104  1
    RHS1      constraint1_4101  1
    RHS1      constraint1_4100  1
    RHS1      constraint1_4106  1
    RHS1      constraint1_4103  1
    RHS1      constraint1_4930  1
    RHS1      constraint2_3660  1
    RHS1      constraint2_3661  1
    RHS1      constraint2_3662  1
    RHS1      constraint2_3663  1
    RHS1      constraint2_6710  1
    RHS1      constraint2_6711  1
    RHS1      constraint2_6712  1
    RHS1      constraint2_6713  1
    RHS1      constraint2_4100  1
    RHS1      constraint2_4101  1
    RHS1      constraint2_4102  1
    RHS1      constraint2_4103  1
    RHS1      constraint2_5290  1
    RHS1      constraint2_5291  1
    RHS1      constraint2_5292  1
    RHS1      constraint2_5293  1
    RHS1      constraint2_380  1
    RHS1      constraint2_381  1
    RHS1      constraint2_382  1
    RHS1      constraint2_383  1
    RHS1      constraint2_4930  1
    RHS1      constraint2_4931  1
    RHS1      constraint2_4932  1
    RHS1      constraint2_4933  1
BOUNDS
 UP BND1      Z_410_5_0  1
 UP BND1      Z_410_5_1  1
 UP BND1      Z_410_5_2  1
 UP BND1      Z_410_5_3  1
 UP BND1      Z_410_5_4  1
 UP BND1      Z_410_2_0  1
 UP BND1      Z_410_2_1  1
 UP BND1      Z_410_2_2  1
 UP BND1      Z_410_2_3  1
 UP BND1      Z_410_2_4  1
 UP BND1      Z_410_4_0  1
 UP BND1      Z_410_4_1  1
 UP BND1      Z_410_4_2  1
 UP BND1      Z_410_4_3  1
 UP BND1      Z_410_4_4  1
 UP BND1      Z_410_1_0  1
 UP BND1      Z_410_1_1  1
 UP BND1      Z_410_1_2  1
 UP BND1      Z_410_1_3  1
 UP BND1      Z_410_1_4  1
 UP BND1      Z_410_0_0  1
 UP BND1      Z_410_0_1  1
 UP BND1      Z_410_0_2  1
 UP BND1      Z_410_0_3  1
 UP BND1      Z_410_0_4  1
 UP BND1      Z_410_6_0  1
 UP BND1      Z_410_6_1  1
 UP BND1      Z_410_6_2  1
 UP BND1      Z_410_6_3  1
 UP BND1      Z_410_6_4  1
 UP BND1      Z_410_3_0  1
 UP BND1      Z_410_3_1  1
 UP BND1      Z_410_3_2  1
 UP BND1      Z_410_3_3  1
 UP BND1      Z_410_3_4  1
 UP BND1      Z_493_0_0  1
 UP BND1      Z_493_0_1  1
 UP BND1      Z_493_0_2  1
 UP BND1      Z_493_0_3  1
 UP BND1      Z_493_0_4  1
QUADOBJ
    Z_410_2_0  Z_493_0_0  -2.6713936681642462e-02
    Z_410_2_1  Z_493_0_1  -2.6713936681642462e-02
    Z_410_2_2  Z_493_0_2  -2.6713936681642462e-02
    Z_410_2_3  Z_493_0_3  -2.6713936681642462e-02
    Z_410_2_4  Z_493_0_4  -2.6713936681642462e-02
    Z_410_1_0  Z_493_0_0  -2.0749718047331025e-02
    Z_410_1_1  Z_493_0_1  -2.0749718047331025e-02
    Z_410_1_2  Z_493_0_2  -2.0749718047331025e-02
    Z_410_1_3  Z_493_0_3  -2.0749718047331025e-02
    Z_410_1_4  Z_493_0_4  -2.0749718047331025e-02
    Z_410_6_0  Z_493_0_0  -4.0904377700199092e-02
    Z_410_6_1  Z_493_0_1  -4.0904377700199092e-02
    Z_410_6_2  Z_493_0_2  -4.0904377700199092e-02
    Z_410_6_3  Z_493_0_3  -4.0904377700199092e-02
    Z_410_6_4  Z_493_0_4  -4.0904377700199092e-02
ENDATA
